SCIP version 5.0.0 [precision: 8 byte] [memory: block] [mode: optimized] [LP solver: NONE] [GitHash: 3bbd232]
Copyright (C) 2002-2017 Konrad-Zuse-Zentrum fuer Informationstechnik Berlin (ZIB)

External codes: 
  Readline EditLine w  GNU library for command line editing (gnu.org/s/readline)
  CppAD 20160000.1     Algorithmic Differentiation of C++ algorithms developed by B. Bell (www.coin-or.org/CppAD)
  ZLIB 1.2.5           General purpose compression library by J. Gailly and M. Adler (zlib.net)
  GMP 6.1.2            GNU Multiple Precision Arithmetic Library developed by T. Granlund (gmplib.org)

user parameter file <scip.set> not found - using default parameters

read problem <../../Split_data/output/parkin/0/4_sample_parkin.logreg>
============

File name	:	../../Split_data/output/parkin/0/4_sample_parkin.logreg
Problem name 	:	4_sample_parkin
Number of data	:	156
Number of var	:	22
The given data has linear independence

[dim=1] time: 0.003063
[dim=2] time: 0.00608
[dim=3] time: 0.008852
[dim=4] time: 0.011092
[dim=5] time: 0.013243
[dim=6] time: 0.016908
[dim=7] Time of forward = 0.019641sec.
AIC: 96.2685
k: 6

[dim=22] time: 0.200722
[dim=21] time: 0.210251
[dim=20] time: 0.29796
[dim=19] time: 0.347075
[dim=18] time: 0.393088
[dim=17] time: 0.436878
[dim=16] time: 0.443035
[dim=15] time: 0.44921
[dim=14] time: 0.493628
[dim=13] time: 0.708551
[dim=12] time: 0.736798
[dim=11] time: 0.77082
[dim=10] time: 0.782688
[dim=9] time: 0.792231
[dim=8] Time of backward = 0.814078sec.
AIC: 85.8988
k: 9
